
[SetEffect_UseLimit]	set_index	class
0	1	0
1	2	0
2	3	0
3	4	0
4	5	0
5	6	0
6	7	0
7	8	0
8	9	0
9	10	0
10	11	0
11	12	0
12	13	0
13	14	0
14	15	0
15	16	0
16	17	0
17	18	0
18	19	0
19	20	0
20	21	0
21	22	0
22	23	0
23	24	0
24	25	0
25	26	0
26	27	0
27	28	0
28	29	0
29	30	0
30	31	0
31	32	0
32	33	0
33	34	0
34	35	0
35	36	0
36	37	0
37	38	0
38	39	0
39	40	0
40	41	0
41	42	0
42	43	0
43	44	0
44	45	0
45	46	0
46	47	0
47	48	0
48	49	0
49	50	0
50	51	0
51	52	0
52	53	0
53	54	0
54	55	0
55	56	81
56	57	168
57	58	262
58	59	0
59	60	0
60	61	0
61	62	0
62	63	0
63	64	0
64	65	0
65	66	0
66	67	0

[SetEffect_item]	set_index	item_index	upgrade	option
0	1	105	-1	-1
1	1	150	-1	-1
2	1	195	-1	-1
3	1	240	-1	-1
4	2	135	-1	-1
5	2	180	-1	-1
6	2	225	-1	-1
7	2	270	-1	-1
8	3	120	-1	-1
9	3	165	-1	-1
10	3	210	-1	-1
11	3	255	-1	-1
12	4	106	-1	-1
13	4	151	-1	-1
14	4	196	-1	-1
15	4	241	-1	-1
16	5	136	-1	-1
17	5	181	-1	-1
18	5	226	-1	-1
19	5	271	-1	-1
20	6	121	-1	-1
21	6	166	-1	-1
22	6	211	-1	-1
23	6	256	-1	-1
24	7	107	-1	-1
25	7	152	-1	-1
26	7	197	-1	-1
27	7	242	-1	-1
28	8	137	-1	-1
29	8	182	-1	-1
30	8	227	-1	-1
31	8	272	-1	-1
32	9	122	-1	-1
33	9	167	-1	-1
34	9	212	-1	-1
35	9	257	-1	-1
36	10	108	-1	-1
37	10	153	-1	-1
38	10	198	-1	-1
39	10	243	-1	-1
40	11	138	-1	-1
41	11	183	-1	-1
42	11	228	-1	-1
43	11	273	-1	-1
44	12	123	-1	-1
45	12	168	-1	-1
46	12	213	-1	-1
47	12	258	-1	-1
48	13	109	-1	-1
49	13	154	-1	-1
50	13	199	-1	-1
51	13	244	-1	-1
52	14	139	-1	-1
53	14	184	-1	-1
54	14	229	-1	-1
55	14	274	-1	-1
56	15	124	-1	-1
57	15	169	-1	-1
58	15	214	-1	-1
59	15	259	-1	-1
60	16	2738	-1	-1
61	16	2744	-1	-1
62	16	2750	-1	-1
63	16	2756	-1	-1
64	16	2742	-1	-1
65	16	2748	-1	-1
66	16	2754	-1	-1
67	16	2760	-1	-1
68	16	2743	-1	-1
69	16	2749	-1	-1
70	16	2755	-1	-1
71	16	2761	-1	-1
72	16	2741	-1	-1
73	16	2747	-1	-1
74	16	2753	-1	-1
75	16	2759	-1	-1
76	16	2739	-1	-1
77	16	2745	-1	-1
78	16	2751	-1	-1
79	16	2757	-1	-1
80	16	2740	-1	-1
81	16	2746	-1	-1
82	16	2752	-1	-1
83	16	2758	-1	-1
84	16	33554789	-1	-1
85	16	33554790	-1	-1
86	16	33554791	-1	-1
87	16	33554788	-1	-1
88	16	33555759	-1	-1
89	16	33555760	-1	-1
90	16	33555761	-1	-1
91	16	33555762	-1	-1
92	16	33557074	-1	-1
93	16	33557075	-1	-1
94	16	33557076	-1	-1
95	16	33557077	-1	-1
96	17	110	-1	-1
97	17	155	-1	-1
98	17	200	-1	-1
99	17	245	-1	-1
100	18	140	-1	-1
101	18	185	-1	-1
102	18	230	-1	-1
103	18	275	-1	-1
104	19	125	-1	-1
105	19	170	-1	-1
106	19	215	-1	-1
107	19	260	-1	-1
108	20	2762	-1	-1
109	20	2768	-1	-1
110	20	2774	-1	-1
111	20	2780	-1	-1
112	20	2766	-1	-1
113	20	2772	-1	-1
114	20	2778	-1	-1
115	20	2784	-1	-1
116	20	2767	-1	-1
117	20	2773	-1	-1
118	20	2779	-1	-1
119	20	2785	-1	-1
120	20	2765	-1	-1
121	20	2771	-1	-1
122	20	2777	-1	-1
123	20	2783	-1	-1
124	20	2763	-1	-1
125	20	2769	-1	-1
126	20	2775	-1	-1
127	20	2781	-1	-1
128	20	2764	-1	-1
129	20	2770	-1	-1
130	20	2776	-1	-1
131	20	2782	-1	-1
132	20	33554793	-1	-1
133	20	33554794	-1	-1
134	20	33554795	-1	-1
135	20	33554792	-1	-1
136	20	33555763	-1	-1
137	20	33555764	-1	-1
138	20	33555765	-1	-1
139	20	33555766	-1	-1
140	20	33557078	-1	-1
141	20	33557079	-1	-1
142	20	33557080	-1	-1
143	20	33557081	-1	-1
144	21	111	-1	-1
145	21	156	-1	-1
146	21	201	-1	-1
147	21	246	-1	-1
148	22	141	-1	-1
149	22	186	-1	-1
150	22	231	-1	-1
151	22	276	-1	-1
152	23	126	-1	-1
153	23	171	-1	-1
154	23	216	-1	-1
155	23	261	-1	-1
156	24	1314	-1	-1
157	24	1320	-1	-1
158	24	1326	-1	-1
159	24	1332	-1	-1
160	24	1318	-1	-1
161	24	1324	-1	-1
162	24	1330	-1	-1
163	24	1336	-1	-1
164	24	1319	-1	-1
165	24	1325	-1	-1
166	24	1331	-1	-1
167	24	1337	-1	-1
168	24	1317	-1	-1
169	24	1323	-1	-1
170	24	1329	-1	-1
171	24	1335	-1	-1
172	24	1315	-1	-1
173	24	1321	-1	-1
174	24	1327	-1	-1
175	24	1333	-1	-1
176	24	1316	-1	-1
177	24	1322	-1	-1
178	24	1328	-1	-1
179	24	1334	-1	-1
180	24	33554797	-1	-1
181	24	33554798	-1	-1
182	24	33554799	-1	-1
183	24	33554796	-1	-1
184	24	33555767	-1	-1
185	24	33555768	-1	-1
186	24	33555769	-1	-1
187	24	33555770	-1	-1
188	24	33557082	-1	-1
189	24	33557083	-1	-1
190	24	33557084	-1	-1
191	24	33557085	-1	-1
192	25	2786	-1	-1
193	25	2792	-1	-1
194	25	2798	-1	-1
195	25	2804	-1	-1
196	25	2790	-1	-1
197	25	2796	-1	-1
198	25	2802	-1	-1
199	25	2808	-1	-1
200	25	2791	-1	-1
201	25	2797	-1	-1
202	25	2803	-1	-1
203	25	2809	-1	-1
204	25	2789	-1	-1
205	25	2795	-1	-1
206	25	2801	-1	-1
207	25	2807	-1	-1
208	25	2787	-1	-1
209	25	2793	-1	-1
210	25	2799	-1	-1
211	25	2805	-1	-1
212	25	2788	-1	-1
213	25	2794	-1	-1
214	25	2800	-1	-1
215	25	2806	-1	-1
216	25	33554801	-1	-1
217	25	33554802	-1	-1
218	25	33554803	-1	-1
219	25	33554800	-1	-1
220	25	33555771	-1	-1
221	25	33555772	-1	-1
222	25	33555773	-1	-1
223	25	33555774	-1	-1
224	25	33557086	-1	-1
225	25	33557087	-1	-1
226	25	33557088	-1	-1
227	25	33557089	-1	-1
228	26	112	-1	-1
229	26	157	-1	-1
230	26	202	-1	-1
231	26	247	-1	-1
232	27	142	-1	-1
233	27	187	-1	-1
234	27	232	-1	-1
235	27	277	-1	-1
236	28	127	-1	-1
237	28	172	-1	-1
238	28	217	-1	-1
239	28	262	-1	-1
240	29	113	-1	-1
241	29	158	-1	-1
242	29	203	-1	-1
243	29	248	-1	-1
244	29	114	-1	-1
245	29	159	-1	-1
246	29	204	-1	-1
247	29	249	-1	-1
248	29	33554805	-1	-1
249	29	33554806	-1	-1
250	29	33554807	-1	-1
251	29	33554804	-1	-1
252	30	143	-1	-1
253	30	188	-1	-1
254	30	233	-1	-1
255	30	278	-1	-1
256	30	144	-1	-1
257	30	189	-1	-1
258	30	234	-1	-1
259	30	279	-1	-1
260	30	33557090	-1	-1
261	30	33557091	-1	-1
262	30	33557092	-1	-1
263	30	33557093	-1	-1
264	31	129	-1	-1
265	31	174	-1	-1
266	31	219	-1	-1
267	31	264	-1	-1
268	31	128	-1	-1
269	31	173	-1	-1
270	31	218	-1	-1
271	31	263	-1	-1
272	31	33555775	-1	-1
273	31	33555776	-1	-1
274	31	33555777	-1	-1
275	31	33555778	-1	-1
276	32	1633	-1	-1
277	32	1639	-1	-1
278	32	1645	-1	-1
279	32	1651	-1	-1
280	32	1637	-1	-1
281	32	1643	-1	-1
282	32	1649	-1	-1
283	32	1655	-1	-1
284	32	1638	-1	-1
285	32	1644	-1	-1
286	32	1650	-1	-1
287	32	1656	-1	-1
288	32	1636	-1	-1
289	32	1642	-1	-1
290	32	1648	-1	-1
291	32	1654	-1	-1
292	32	1634	-1	-1
293	32	1640	-1	-1
294	32	1646	-1	-1
295	32	1652	-1	-1
296	32	1635	-1	-1
297	32	1641	-1	-1
298	32	1647	-1	-1
299	32	1653	-1	-1
300	32	33554809	-1	-1
301	32	33554810	-1	-1
302	32	33554811	-1	-1
303	32	33554808	-1	-1
304	32	33555779	-1	-1
305	32	33555780	-1	-1
306	32	33555781	-1	-1
307	32	33555782	-1	-1
308	32	33557094	-1	-1
309	32	33557095	-1	-1
310	32	33557096	-1	-1
311	32	33557097	-1	-1
312	33	115	-1	-1
313	33	160	-1	-1
314	33	205	-1	-1
315	33	250	-1	-1
316	33	145	-1	-1
317	33	190	-1	-1
318	33	235	-1	-1
319	33	280	-1	-1
320	33	146	-1	-1
321	33	191	-1	-1
322	33	236	-1	-1
323	33	281	-1	-1
324	33	131	-1	-1
325	33	176	-1	-1
326	33	221	-1	-1
327	33	266	-1	-1
328	33	116	-1	-1
329	33	161	-1	-1
330	33	206	-1	-1
331	33	251	-1	-1
332	33	130	-1	-1
333	33	175	-1	-1
334	33	220	-1	-1
335	33	265	-1	-1
336	33	33554817	-1	-1
337	33	33554818	-1	-1
338	33	33554819	-1	-1
339	33	33554816	-1	-1
340	33	33555787	-1	-1
341	33	33555788	-1	-1
342	33	33555789	-1	-1
343	33	33555790	-1	-1
344	33	33557098	-1	-1
345	33	33557099	-1	-1
346	33	33557100	-1	-1
347	33	33557101	-1	-1
348	34	2710	-1	-1
349	34	2716	-1	-1
350	34	2722	-1	-1
351	34	2728	-1	-1
352	34	2714	-1	-1
353	34	2720	-1	-1
354	34	2726	-1	-1
355	34	2732	-1	-1
356	34	2715	-1	-1
357	34	2721	-1	-1
358	34	2727	-1	-1
359	34	2733	-1	-1
360	34	2713	-1	-1
361	34	2719	-1	-1
362	34	2725	-1	-1
363	34	2731	-1	-1
364	34	2711	-1	-1
365	34	2717	-1	-1
366	34	2723	-1	-1
367	34	2729	-1	-1
368	34	2712	-1	-1
369	34	2718	-1	-1
370	34	2724	-1	-1
371	34	2730	-1	-1
372	34	33554813	-1	-1
373	34	33554814	-1	-1
374	34	33554815	-1	-1
375	34	33554812	-1	-1
376	34	33555783	-1	-1
377	34	33555784	-1	-1
378	34	33555785	-1	-1
379	34	33555786	-1	-1
380	34	33557114	-1	-1
381	34	33557115	-1	-1
382	34	33557116	-1	-1
383	34	33557117	-1	-1
384	35	3633	-1	-1
385	35	3639	-1	-1
386	35	3645	-1	-1
387	35	3651	-1	-1
388	35	3637	-1	-1
389	35	3643	-1	-1
390	35	3649	-1	-1
391	35	3655	-1	-1
392	35	3638	-1	-1
393	35	3644	-1	-1
394	35	3650	-1	-1
395	35	3656	-1	-1
396	35	3636	-1	-1
397	35	3642	-1	-1
398	35	3648	-1	-1
399	35	3654	-1	-1
400	35	3634	-1	-1
401	35	3640	-1	-1
402	35	3646	-1	-1
403	35	3652	-1	-1
404	35	3635	-1	-1
405	35	3641	-1	-1
406	35	3647	-1	-1
407	35	3653	-1	-1
408	35	33554973	-1	-1
409	35	33554974	-1	-1
410	35	33554975	-1	-1
411	35	33554972	-1	-1
412	35	33555807	-1	-1
413	35	33555808	-1	-1
414	35	33555809	-1	-1
415	35	33555810	-1	-1
416	35	33557118	-1	-1
417	35	33557119	-1	-1
418	35	33557120	-1	-1
419	35	33557121	-1	-1
420	36	3657	-1	-1
421	36	3663	-1	-1
422	36	3669	-1	-1
423	36	3675	-1	-1
424	36	3661	-1	-1
425	36	3667	-1	-1
426	36	3673	-1	-1
427	36	3679	-1	-1
428	36	3662	-1	-1
429	36	3668	-1	-1
430	36	3674	-1	-1
431	36	3680	-1	-1
432	36	3660	-1	-1
433	36	3666	-1	-1
434	36	3672	-1	-1
435	36	3678	-1	-1
436	36	3658	-1	-1
437	36	3664	-1	-1
438	36	3670	-1	-1
439	36	3676	-1	-1
440	36	3659	-1	-1
441	36	3665	-1	-1
442	36	3671	-1	-1
443	36	3677	-1	-1
444	36	33554977	-1	-1
445	36	33554978	-1	-1
446	36	33554979	-1	-1
447	36	33554976	-1	-1
448	36	33555811	-1	-1
449	36	33555812	-1	-1
450	36	33555813	-1	-1
451	36	33555814	-1	-1
452	36	33557122	-1	-1
453	36	33557123	-1	-1
454	36	33557124	-1	-1
455	36	33557125	-1	-1
456	37	3681	-1	-1
457	37	3687	-1	-1
458	37	3693	-1	-1
459	37	3699	-1	-1
460	37	3685	-1	-1
461	37	3691	-1	-1
462	37	3697	-1	-1
463	37	3703	-1	-1
464	37	3686	-1	-1
465	37	3692	-1	-1
466	37	3698	-1	-1
467	37	3704	-1	-1
468	37	3684	-1	-1
469	37	3690	-1	-1
470	37	3696	-1	-1
471	37	3702	-1	-1
472	37	3682	-1	-1
473	37	3688	-1	-1
474	37	3694	-1	-1
475	37	3700	-1	-1
476	37	3683	-1	-1
477	37	3689	-1	-1
478	37	3695	-1	-1
479	37	3701	-1	-1
480	37	33554981	-1	-1
481	37	33554982	-1	-1
482	37	33554983	-1	-1
483	37	33554980	-1	-1
484	37	33555815	-1	-1
485	37	33555816	-1	-1
486	37	33555817	-1	-1
487	37	33555818	-1	-1
488	37	33557126	-1	-1
489	37	33557127	-1	-1
490	37	33557128	-1	-1
491	37	33557129	-1	-1
492	38	3705	-1	-1
493	38	3711	-1	-1
494	38	3717	-1	-1
495	38	3723	-1	-1
496	38	3709	-1	-1
497	38	3715	-1	-1
498	38	3721	-1	-1
499	38	3727	-1	-1
500	38	3710	-1	-1
501	38	3716	-1	-1
502	38	3722	-1	-1
503	38	3728	-1	-1
504	38	3708	-1	-1
505	38	3714	-1	-1
506	38	3720	-1	-1
507	38	3726	-1	-1
508	38	3706	-1	-1
509	38	3712	-1	-1
510	38	3718	-1	-1
511	38	3724	-1	-1
512	38	3707	-1	-1
513	38	3713	-1	-1
514	38	3719	-1	-1
515	38	3725	-1	-1
516	38	33554985	-1	-1
517	38	33554986	-1	-1
518	38	33554987	-1	-1
519	38	33554984	-1	-1
520	38	33555819	-1	-1
521	38	33555820	-1	-1
522	38	33555821	-1	-1
523	38	33555822	-1	-1
524	38	33557130	-1	-1
525	38	33557131	-1	-1
526	38	33557132	-1	-1
527	38	33557133	-1	-1
528	39	3729	-1	-1
529	39	3735	-1	-1
530	39	3741	-1	-1
531	39	3747	-1	-1
532	39	3730	-1	-1
533	39	3736	-1	-1
534	39	3742	-1	-1
535	39	3748	-1	-1
536	39	33554989	-1	-1
537	39	33554990	-1	-1
538	39	33554991	-1	-1
539	39	33554988	-1	-1
540	40	3733	-1	-1
541	40	3739	-1	-1
542	40	3745	-1	-1
543	40	3751	-1	-1
544	40	3734	-1	-1
545	40	3740	-1	-1
546	40	3746	-1	-1
547	40	3752	-1	-1
548	40	33557134	-1	-1
549	40	33557135	-1	-1
550	40	33557136	-1	-1
551	40	33557137	-1	-1
552	41	3732	-1	-1
553	41	3738	-1	-1
554	41	3744	-1	-1
555	41	3750	-1	-1
556	41	3731	-1	-1
557	41	3737	-1	-1
558	41	3743	-1	-1
559	41	3749	-1	-1
560	41	33555823	-1	-1
561	41	33555824	-1	-1
562	41	33555825	-1	-1
563	41	33555826	-1	-1
564	42	3753	-1	-1
565	42	3759	-1	-1
566	42	3765	-1	-1
567	42	3771	-1	-1
568	42	3757	-1	-1
569	42	3763	-1	-1
570	42	3769	-1	-1
571	42	3775	-1	-1
572	42	3758	-1	-1
573	42	3764	-1	-1
574	42	3770	-1	-1
575	42	3776	-1	-1
576	42	3756	-1	-1
577	42	3762	-1	-1
578	42	3768	-1	-1
579	42	3774	-1	-1
580	42	3754	-1	-1
581	42	3760	-1	-1
582	42	3766	-1	-1
583	42	3772	-1	-1
584	42	3755	-1	-1
585	42	3761	-1	-1
586	42	3767	-1	-1
587	42	3773	-1	-1
588	42	33554993	-1	-1
589	42	33554994	-1	-1
590	42	33554995	-1	-1
591	42	33554992	-1	-1
592	42	33555827	-1	-1
593	42	33555828	-1	-1
594	42	33555829	-1	-1
595	42	33555830	-1	-1
596	42	33557138	-1	-1
597	42	33557139	-1	-1
598	42	33557140	-1	-1
599	42	33557141	-1	-1
600	43	3777	-1	-1
601	43	3783	-1	-1
602	43	3789	-1	-1
603	43	3795	-1	-1
604	43	3781	-1	-1
605	43	3787	-1	-1
606	43	3793	-1	-1
607	43	3799	-1	-1
608	43	3782	-1	-1
609	43	3788	-1	-1
610	43	3794	-1	-1
611	43	3800	-1	-1
612	43	3780	-1	-1
613	43	3786	-1	-1
614	43	3792	-1	-1
615	43	3798	-1	-1
616	43	3778	-1	-1
617	43	3784	-1	-1
618	43	3790	-1	-1
619	43	3796	-1	-1
620	43	3779	-1	-1
621	43	3785	-1	-1
622	43	3791	-1	-1
623	43	3797	-1	-1
624	43	33554997	-1	-1
625	43	33554998	-1	-1
626	43	33554999	-1	-1
627	43	33554996	-1	-1
628	43	33555831	-1	-1
629	43	33555832	-1	-1
630	43	33555833	-1	-1
631	43	33555834	-1	-1
632	43	33557142	-1	-1
633	43	33557143	-1	-1
634	43	33557144	-1	-1
635	43	33557145	-1	-1
636	44	3903	-1	-1
637	44	3909	-1	-1
638	44	3915	-1	-1
639	44	3921	-1	-1
640	44	3907	-1	-1
641	44	3913	-1	-1
642	44	3919	-1	-1
643	44	3925	-1	-1
644	44	3908	-1	-1
645	44	3914	-1	-1
646	44	3920	-1	-1
647	44	3926	-1	-1
648	44	3906	-1	-1
649	44	3912	-1	-1
650	44	3918	-1	-1
651	44	3924	-1	-1
652	44	3904	-1	-1
653	44	3910	-1	-1
654	44	3916	-1	-1
655	44	3922	-1	-1
656	44	3905	-1	-1
657	44	3911	-1	-1
658	44	3917	-1	-1
659	44	3923	-1	-1
660	44	33555013	-1	-1
661	44	33555014	-1	-1
662	44	33555015	-1	-1
663	44	33555012	-1	-1
664	44	33555839	-1	-1
665	44	33555840	-1	-1
666	44	33555841	-1	-1
667	44	33555842	-1	-1
668	44	33557154	-1	-1
669	44	33557155	-1	-1
670	44	33557156	-1	-1
671	44	33557157	-1	-1
672	45	3927	-1	-1
673	45	3933	-1	-1
674	45	3939	-1	-1
675	45	3945	-1	-1
676	45	3931	-1	-1
677	45	3937	-1	-1
678	45	3943	-1	-1
679	45	3949	-1	-1
680	45	3932	-1	-1
681	45	3938	-1	-1
682	45	3944	-1	-1
683	45	3950	-1	-1
684	45	3930	-1	-1
685	45	3936	-1	-1
686	45	3942	-1	-1
687	45	3948	-1	-1
688	45	3928	-1	-1
689	45	3934	-1	-1
690	45	3940	-1	-1
691	45	3946	-1	-1
692	45	3929	-1	-1
693	45	3935	-1	-1
694	45	3941	-1	-1
695	45	3947	-1	-1
696	45	33555017	-1	-1
697	45	33555018	-1	-1
698	45	33555019	-1	-1
699	45	33555016	-1	-1
700	45	33555843	-1	-1
701	45	33555844	-1	-1
702	45	33555845	-1	-1
703	45	33555846	-1	-1
704	45	33557158	-1	-1
705	45	33557159	-1	-1
706	45	33557160	-1	-1
707	45	33557161	-1	-1
708	46	3951	-1	-1
709	46	3957	-1	-1
710	46	3963	-1	-1
711	46	3969	-1	-1
712	46	3955	-1	-1
713	46	3961	-1	-1
714	46	3967	-1	-1
715	46	3973	-1	-1
716	46	3956	-1	-1
717	46	3962	-1	-1
718	46	3968	-1	-1
719	46	3974	-1	-1
720	46	3954	-1	-1
721	46	3960	-1	-1
722	46	3966	-1	-1
723	46	3972	-1	-1
724	46	3952	-1	-1
725	46	3958	-1	-1
726	46	3964	-1	-1
727	46	3970	-1	-1
728	46	3953	-1	-1
729	46	3959	-1	-1
730	46	3965	-1	-1
731	46	3971	-1	-1
732	46	33555021	-1	-1
733	46	33555022	-1	-1
734	46	33555023	-1	-1
735	46	33555020	-1	-1
736	46	33555847	-1	-1
737	46	33555848	-1	-1
738	46	33555849	-1	-1
739	46	33555850	-1	-1
740	46	33557162	-1	-1
741	46	33557163	-1	-1
742	46	33557164	-1	-1
743	46	33557165	-1	-1
744	47	3975	-1	-1
745	47	3981	-1	-1
746	47	3987	-1	-1
747	47	3993	-1	-1
748	47	3979	-1	-1
749	47	3985	-1	-1
750	47	3991	-1	-1
751	47	3997	-1	-1
752	47	3980	-1	-1
753	47	3986	-1	-1
754	47	3992	-1	-1
755	47	3998	-1	-1
756	47	3978	-1	-1
757	47	3984	-1	-1
758	47	3990	-1	-1
759	47	3996	-1	-1
760	47	3976	-1	-1
761	47	3982	-1	-1
762	47	3988	-1	-1
763	47	3994	-1	-1
764	47	3977	-1	-1
765	47	3983	-1	-1
766	47	3989	-1	-1
767	47	3995	-1	-1
768	47	33555025	-1	-1
769	47	33555026	-1	-1
770	47	33555027	-1	-1
771	47	33555024	-1	-1
772	47	33555851	-1	-1
773	47	33555852	-1	-1
774	47	33555853	-1	-1
775	47	33555854	-1	-1
776	47	33557166	-1	-1
777	47	33557167	-1	-1
778	47	33557168	-1	-1
779	47	33557169	-1	-1
780	48	3999	-1	-1
781	48	4005	-1	-1
782	48	4011	-1	-1
783	48	4017	-1	-1
784	48	4000	-1	-1
785	48	4006	-1	-1
786	48	4012	-1	-1
787	48	4018	-1	-1
788	48	33555029	-1	-1
789	48	33555030	-1	-1
790	48	33555031	-1	-1
791	48	33555028	-1	-1
792	49	4003	-1	-1
793	49	4009	-1	-1
794	49	4015	-1	-1
795	49	4021	-1	-1
796	49	4004	-1	-1
797	49	4010	-1	-1
798	49	4016	-1	-1
799	49	4022	-1	-1
800	49	33557170	-1	-1
801	49	33557171	-1	-1
802	49	33557172	-1	-1
803	49	33557173	-1	-1
804	50	4002	-1	-1
805	50	4008	-1	-1
806	50	4014	-1	-1
807	50	4020	-1	-1
808	50	4001	-1	-1
809	50	4007	-1	-1
810	50	4013	-1	-1
811	50	4019	-1	-1
812	50	33555855	-1	-1
813	50	33555856	-1	-1
814	50	33555857	-1	-1
815	50	33555858	-1	-1
816	51	4023	-1	-1
817	51	4029	-1	-1
818	51	4035	-1	-1
819	51	4041	-1	-1
820	51	4027	-1	-1
821	51	4033	-1	-1
822	51	4039	-1	-1
823	51	4045	-1	-1
824	51	4028	-1	-1
825	51	4034	-1	-1
826	51	4040	-1	-1
827	51	4046	-1	-1
828	51	4026	-1	-1
829	51	4032	-1	-1
830	51	4038	-1	-1
831	51	4044	-1	-1
832	51	4024	-1	-1
833	51	4030	-1	-1
834	51	4036	-1	-1
835	51	4042	-1	-1
836	51	4025	-1	-1
837	51	4031	-1	-1
838	51	4037	-1	-1
839	51	4043	-1	-1
840	51	33555033	-1	-1
841	51	33555034	-1	-1
842	51	33555035	-1	-1
843	51	33555032	-1	-1
844	51	33555859	-1	-1
845	51	33555860	-1	-1
846	51	33555861	-1	-1
847	51	33555862	-1	-1
848	51	33557174	-1	-1
849	51	33557175	-1	-1
850	51	33557176	-1	-1
851	51	33557177	-1	-1
852	52	4047	-1	-1
853	52	4053	-1	-1
854	52	4059	-1	-1
855	52	4065	-1	-1
856	52	4051	-1	-1
857	52	4057	-1	-1
858	52	4063	-1	-1
859	52	4069	-1	-1
860	52	4052	-1	-1
861	52	4058	-1	-1
862	52	4064	-1	-1
863	52	4070	-1	-1
864	52	4050	-1	-1
865	52	4056	-1	-1
866	52	4062	-1	-1
867	52	4068	-1	-1
868	52	4048	-1	-1
869	52	4054	-1	-1
870	52	4060	-1	-1
871	52	4066	-1	-1
872	52	4049	-1	-1
873	52	4055	-1	-1
874	52	4061	-1	-1
875	52	4067	-1	-1
876	52	33555037	-1	-1
877	52	33555038	-1	-1
878	52	33555039	-1	-1
879	52	33555036	-1	-1
880	52	33555863	-1	-1
881	52	33555864	-1	-1
882	52	33555865	-1	-1
883	52	33555866	-1	-1
884	52	33557178	-1	-1
885	52	33557179	-1	-1
886	52	33557180	-1	-1
887	52	33557181	-1	-1
888	53	33554439	-1	-1
889	53	33554445	-1	-1
890	53	33554451	-1	-1
891	53	33554457	-1	-1
892	53	33554443	-1	-1
893	53	33554449	-1	-1
894	53	33554455	-1	-1
895	53	33554461	-1	-1
896	53	33554444	-1	-1
897	53	33554450	-1	-1
898	53	33554456	-1	-1
899	53	33554462	-1	-1
900	53	33554442	-1	-1
901	53	33554448	-1	-1
902	53	33554454	-1	-1
903	53	33554460	-1	-1
904	53	33554440	-1	-1
905	53	33554446	-1	-1
906	53	33554452	-1	-1
907	53	33554458	-1	-1
908	53	33554441	-1	-1
909	53	33554447	-1	-1
910	53	33554453	-1	-1
911	53	33554459	-1	-1
912	53	33554821	-1	-1
913	53	33554822	-1	-1
914	53	33554823	-1	-1
915	53	33554820	-1	-1
916	53	33555791	-1	-1
917	53	33555792	-1	-1
918	53	33555793	-1	-1
919	53	33555794	-1	-1
920	53	33557102	-1	-1
921	53	33557103	-1	-1
922	53	33557104	-1	-1
923	53	33557105	-1	-1
924	54	33554469	-1	-1
925	54	33554475	-1	-1
926	54	33554481	-1	-1
927	54	33554487	-1	-1
928	54	33554473	-1	-1
929	54	33554479	-1	-1
930	54	33554485	-1	-1
931	54	33554491	-1	-1
932	54	33554474	-1	-1
933	54	33554480	-1	-1
934	54	33554486	-1	-1
935	54	33554492	-1	-1
936	54	33554472	-1	-1
937	54	33554478	-1	-1
938	54	33554484	-1	-1
939	54	33554490	-1	-1
940	54	33554470	-1	-1
941	54	33554476	-1	-1
942	54	33554482	-1	-1
943	54	33554488	-1	-1
944	54	33554471	-1	-1
945	54	33554477	-1	-1
946	54	33554483	-1	-1
947	54	33554489	-1	-1
948	54	33555001	-1	-1
949	54	33555002	-1	-1
950	54	33555003	-1	-1
951	54	33555000	-1	-1
952	54	33555835	-1	-1
953	54	33555836	-1	-1
954	54	33555837	-1	-1
955	54	33555838	-1	-1
956	54	33557146	-1	-1
957	54	33557147	-1	-1
958	54	33557148	-1	-1
959	54	33557149	-1	-1
960	55	33554499	-1	-1
961	55	33554505	-1	-1
962	55	33554511	-1	-1
963	55	33554517	-1	-1
964	55	33554503	-1	-1
965	55	33554509	-1	-1
966	55	33554515	-1	-1
967	55	33554521	-1	-1
968	55	33554504	-1	-1
969	55	33554510	-1	-1
970	55	33554516	-1	-1
971	55	33554522	-1	-1
972	55	33554502	-1	-1
973	55	33554508	-1	-1
974	55	33554514	-1	-1
975	55	33554520	-1	-1
976	55	33554500	-1	-1
977	55	33554506	-1	-1
978	55	33554512	-1	-1
979	55	33554518	-1	-1
980	55	33554501	-1	-1
981	55	33554507	-1	-1
982	55	33554513	-1	-1
983	55	33554519	-1	-1
984	55	33555041	-1	-1
985	55	33555042	-1	-1
986	55	33555043	-1	-1
987	55	33555040	-1	-1
988	55	33555867	-1	-1
989	55	33555868	-1	-1
990	55	33555869	-1	-1
991	55	33555870	-1	-1
992	55	33557182	-1	-1
993	55	33557183	-1	-1
994	55	33557184	-1	-1
995	55	33557185	-1	-1
996	56	33555223	-1	-1
997	56	33555226	-1	-1
998	56	33555229	-1	-1
999	56	33555232	-1	-1
1000	56	33555235	-1	-1
1001	56	33555236	-1	-1
1002	56	33555237	-1	-1
1003	56	33555216	-1	-1
1004	56	33555217	-1	-1
1005	56	33555218	-1	-1
1006	56	33555219	-1	-1
1007	56	33555220	-1	-1
1008	56	33555221	-1	-1
1009	56	33555222	-1	-1
1010	56	33555222	-1	-1
1011	57	33555224	-1	-1
1012	57	33555227	-1	-1
1013	57	33555230	-1	-1
1014	57	33555233	-1	-1
1015	57	33555235	-1	-1
1016	57	33555236	-1	-1
1017	57	33555237	-1	-1
1018	57	33555216	-1	-1
1019	57	33555217	-1	-1
1020	57	33555216	-1	-1
1021	57	33555217	-1	-1
1022	57	33555218	-1	-1
1023	57	33555219	-1	-1
1024	58	33555225	-1	-1
1025	58	33555228	-1	-1
1026	58	33555231	-1	-1
1027	58	33555234	-1	-1
1028	58	33555235	-1	-1
1029	58	33555236	-1	-1
1030	58	33555237	-1	-1
1031	58	33555216	-1	-1
1032	58	33555217	-1	-1
1033	58	33555218	-1	-1
1034	58	33555219	-1	-1
1035	58	33555218	-1	-1
1036	58	33555219	-1	-1
1037	58	33555216	-1	-1
1038	58	33555217	-1	-1
1039	59	33555319	-1	-1
1040	59	33555320	-1	-1
1041	59	33555321	-1	-1
1042	59	33555322	-1	-1
1043	59	33555323	-1	-1
1044	59	33555324	-1	-1
1045	59	33555325	-1	-1
1046	59	33555326	-1	-1
1047	59	33555327	-1	-1
1048	59	33555328	-1	-1
1049	59	33555329	-1	-1
1050	59	33555330	-1	-1
1051	59	33555331	-1	-1
1052	59	33555332	-1	-1
1053	59	33555333	-1	-1
1054	59	33555334	-1	-1
1055	59	33555335	-1	-1
1056	59	33555336	-1	-1
1057	59	33555337	-1	-1
1058	59	33555338	-1	-1
1059	59	33555339	-1	-1
1060	59	33555340	-1	-1
1061	59	33555341	-1	-1
1062	59	33555342	-1	-1
1063	59	33555343	-1	-1
1064	59	33555344	-1	-1
1065	59	33555345	-1	-1
1066	59	33555346	-1	-1
1067	59	33555795	-1	-1
1068	59	33555796	-1	-1
1069	59	33555797	-1	-1
1070	59	33555798	-1	-1
1071	59	33557106	-1	-1
1072	59	33557107	-1	-1
1073	59	33557108	-1	-1
1074	59	33557109	-1	-1
1075	60	33556020	-1	-1
1076	60	33556021	-1	-1
1077	60	33556022	-1	-1
1078	60	33556023	-1	-1
1079	60	33556024	-1	-1
1080	60	33556025	-1	-1
1081	60	33556026	-1	-1
1082	60	33556027	-1	-1
1083	60	33556028	-1	-1
1084	60	33556029	-1	-1
1085	60	33556030	-1	-1
1086	60	33556031	-1	-1
1087	60	33556032	-1	-1
1088	60	33556033	-1	-1
1089	60	33556034	-1	-1
1090	60	33556035	-1	-1
1091	60	33556036	-1	-1
1092	60	33556037	-1	-1
1093	60	33556038	-1	-1
1094	60	33556039	-1	-1
1095	60	33556040	-1	-1
1096	60	33556041	-1	-1
1097	60	33556042	-1	-1
1098	60	33556043	-1	-1
1099	60	33556044	-1	-1
1100	60	33556045	-1	-1
1101	60	33556046	-1	-1
1102	60	33556047	-1	-1
1103	60	33556048	-1	-1
1104	60	33556049	-1	-1
1105	60	33556050	-1	-1
1106	60	33556051	-1	-1
1107	60	33557150	-1	-1
1108	60	33557151	-1	-1
1109	60	33557152	-1	-1
1110	60	33557153	-1	-1
1111	61	33556208	-1	-1
1112	61	33556209	-1	-1
1113	61	33556210	-1	-1
1114	61	33556211	-1	-1
1115	61	33556212	-1	-1
1116	61	33556213	-1	-1
1117	61	33556214	-1	-1
1118	61	33556215	-1	-1
1119	61	33556216	-1	-1
1120	61	33556217	-1	-1
1121	61	33556218	-1	-1
1122	61	33556219	-1	-1
1123	61	33556220	-1	-1
1124	61	33556221	-1	-1
1125	61	33556222	-1	-1
1126	61	33556223	-1	-1
1127	61	33556224	-1	-1
1128	61	33556225	-1	-1
1129	61	33556226	-1	-1
1130	61	33556227	-1	-1
1131	61	33556228	-1	-1
1132	61	33556229	-1	-1
1133	61	33556230	-1	-1
1134	61	33556231	-1	-1
1135	61	33556232	-1	-1
1136	61	33556233	-1	-1
1137	61	33556234	-1	-1
1138	61	33556235	-1	-1
1139	61	33556236	-1	-1
1140	61	33556237	-1	-1
1141	61	33556238	-1	-1
1142	61	33556239	-1	-1
1143	61	33557186	-1	-1
1144	61	33557187	-1	-1
1145	61	33557188	-1	-1
1146	61	33557189	-1	-1
1147	62	33556383	-1	-1
1148	62	33556384	-1	-1
1149	62	33556385	-1	-1
1150	62	33556386	-1	-1
1151	62	33556387	-1	-1
1152	62	33556389	-1	-1
1153	62	33556390	-1	-1
1154	62	33556391	-1	-1
1155	62	33556392	-1	-1
1156	62	33556393	-1	-1
1157	62	33556394	-1	-1
1158	62	33556395	-1	-1
1159	62	33556397	-1	-1
1160	62	33556398	-1	-1
1161	62	33556399	-1	-1
1162	62	33556400	-1	-1
1163	62	33556401	-1	-1
1164	62	33556402	-1	-1
1165	62	33556403	-1	-1
1166	62	33556405	-1	-1
1167	62	33556406	-1	-1
1168	62	33556407	-1	-1
1169	62	33556408	-1	-1
1170	62	33556409	-1	-1
1171	62	33556410	-1	-1
1172	62	33556411	-1	-1
1173	62	33556413	-1	-1
1174	62	33556414	-1	-1
1175	62	33556388	-1	-1
1176	62	33556396	-1	-1
1177	62	33556404	-1	-1
1178	62	33556412	-1	-1
1179	62	33557110	-1	-1
1180	62	33557111	-1	-1
1181	62	33557112	-1	-1
1182	62	33557113	-1	-1
1183	63	33557725	-1	-1
1184	63	33557728	-1	-1
1185	63	33557731	-1	-1
1186	63	33557734	-1	-1
1187	63	33557727	-1	-1
1188	63	33557730	-1	-1
1189	63	33557733	-1	-1
1190	63	33557736	-1	-1
1191	63	33557726	-1	-1
1192	63	33557729	-1	-1
1193	63	33557732	-1	-1
1194	63	33557735	-1	-1
1195	64	33557737	-1	-1
1196	64	33557738	-1	-1
1197	64	33557739	-1	-1
1198	64	33557740	-1	-1
1199	64	33557741	-1	-1
1200	64	33557742	-1	-1
1201	64	33557743	-1	-1
1202	64	33557744	-1	-1
1203	64	33557745	-1	-1
1204	64	33557746	-1	-1
1205	64	33557747	-1	-1
1206	64	33557748	-1	-1
1207	64	33557749	-1	-1
1208	64	33557750	-1	-1
1209	64	33557751	-1	-1
1210	64	33557752	-1	-1
1211	64	33557753	-1	-1
1212	64	33557754	-1	-1
1213	64	33557755	-1	-1
1214	64	33557756	-1	-1
1215	64	33557757	-1	-1
1216	64	33557758	-1	-1
1217	64	33557759	-1	-1
1218	64	33557760	-1	-1
1219	64	33557763	-1	-1
1220	64	33557764	-1	-1
1221	64	33557765	-1	-1
1222	64	33557766	-1	-1
1223	64	33557767	-1	-1
1224	64	33557768	-1	-1
1225	64	33557769	-1	-1
1226	64	33557770	-1	-1
1227	65	33557824	-1	-1
1228	65	33557825	-1	-1
1229	65	33557826	-1	-1
1230	65	33557827	-1	-1
1231	65	33557828	-1	-1
1232	65	33557829	-1	-1
1233	65	33557830	-1	-1
1234	65	33557831	-1	-1
1235	65	33557832	-1	-1
1236	65	33557833	-1	-1
1237	65	33557834	-1	-1
1238	65	33557835	-1	-1
1239	65	33557836	-1	-1
1240	65	33557837	-1	-1
1241	65	33557838	-1	-1
1242	65	33557839	-1	-1
1243	65	33557840	-1	-1
1244	65	33557841	-1	-1
1245	65	33557842	-1	-1
1246	65	33557843	-1	-1
1247	65	33557844	-1	-1
1248	65	33557845	-1	-1
1249	65	33557846	-1	-1
1250	65	33557847	-1	-1
1251	65	33557849	-1	-1
1252	65	33557850	-1	-1
1253	65	33557851	-1	-1
1254	65	33557852	-1	-1
1255	65	33557853	-1	-1
1256	65	33557854	-1	-1
1257	65	33557855	-1	-1
1258	65	33557856	-1	-1
1259	66	33557399	-1	-1
1260	66	33557399	-1	-1
1261	67	33557400	-1	-1
1262	67	33557400	-1	-1

[SetEffect_set]	set_index	item_count	option
0	1	4	1
1	2	4	1
2	3	4	1
3	4	4	1
4	5	4	1
5	6	4	1
6	7	4	1
7	8	4	1
8	9	4	1
9	10	4	1
10	11	4	1
11	12	4	1
12	13	4	1
13	14	4	1
14	15	4	1
15	16	4	2
16	17	4	2
17	18	4	2
18	19	4	2
19	20	4	2
20	21	4	2
21	22	4	2
22	23	4	2
23	24	4	2
24	25	4	3
25	26	4	3
26	27	4	3
27	28	4	3
28	29	4	3
29	30	4	3
30	31	4	3
31	32	4	3
32	33	4	4
33	34	2	5
34	34	4	6
35	35	4	2
36	36	4	2
37	37	4	2
38	38	4	3
39	39	4	3
40	40	4	3
41	41	4	3
42	42	4	3
43	43	4	4
44	44	4	2
45	45	4	2
46	46	4	2
47	47	4	3
48	48	4	3
49	49	4	3
50	50	4	3
51	51	4	3
52	52	4	4
53	53	4	4
54	54	4	4
55	55	4	4
56	56	2	13
57	56	3	14
58	56	4	15
59	56	5	16
60	56	6	17
61	56	7	18
62	57	2	19
63	57	3	20
64	57	4	21
65	57	5	22
66	57	6	23
67	57	7	24
68	58	2	25
69	58	3	26
70	58	4	27
71	58	5	28
72	58	6	29
73	58	7	30
74	59	4	4
75	60	4	4
76	61	4	4
77	62	4	33
78	63	4	34
79	64	4	35
80	65	4	36
81	66	2	37
82	67	2	38

[SetEffect_extra]	set_index	item_index	upgrade	option
0	10001	2734	-1	-1
1	10002	2735	-1	-1
2	10003	2736	-1	-1
3	10004	33556262	-1	-1

[SetEffect_extra_set]	set_index	match_set	match_count	option
0	10001	34	2	7
1	10001	34	4	10
2	10002	34	2	8
3	10002	34	4	11
4	10003	34	2	9
5	10003	34	4	12
6	10004	34	2	31
7	10004	34	4	32

[SetEffect_option]	option_id	force_id	force_value	value_type
0	1	5	5	1
1	1	7	30	1
2	2	5	10	1
3	2	7	40	1
4	3	5	15	1
5	3	7	50	1
6	4	5	20	1
7	4	7	60	1
8	5	113	10	1
9	6	113	20	1
10	6	8	4	2
11	7	25	1	2
12	8	30	1	2
13	9	32	1	2
14	10	25	2	2
15	11	30	2	2
16	12	32	2	2
17	13	78	10	1
18	13	5	80	1
19	13	7	60	1
20	13	1	100	1
21	13	79	20	1
22	13	74	10	1
23	14	78	30	1
24	14	5	160	1
25	14	7	100	1
26	14	1	180	1
27	14	79	20	1
28	14	74	20	1
29	15	78	60	1
30	15	5	240	1
31	15	7	180	1
32	15	1	290	1
33	15	79	20	1
34	15	74	40	1
35	16	78	60	1
36	16	5	240	1
37	16	7	180	1
38	16	1	290	1
39	16	9	6	2
40	16	25	1	2
41	16	114	1	2
42	16	8	3	2
43	16	74	40	1
44	16	79	60	1
45	17	78	60	1
46	17	5	240	1
47	17	7	180	1
48	17	1	290	1
49	17	9	8	2
50	17	25	3	2
51	17	114	4	2
52	17	8	6	2
53	17	74	40	1
54	17	79	100	1
55	18	78	60	1
56	18	5	240	1
57	18	7	180	1
58	18	1	290	1
59	18	9	13	2
60	18	25	7	2
61	18	114	4	2
62	18	8	6	2
63	18	74	40	1
64	18	79	100	1
65	18	80	30	1
66	19	78	10	1
67	19	5	60	1
68	19	7	50	1
69	19	1	60	1
70	19	79	20	1
71	19	74	10	1
72	20	78	30	1
73	20	5	120	1
74	20	7	90	1
75	20	1	100	1
76	20	79	20	1
77	20	74	20	1
78	21	78	60	1
79	21	5	200	1
80	21	7	140	1
81	21	1	200	1
82	21	79	20	1
83	21	74	40	1
84	22	78	60	1
85	22	5	200	1
86	22	7	140	1
87	22	1	200	1
88	22	9	6	2
89	22	25	1	2
90	22	114	1	2
91	22	8	3	2
92	22	74	40	1
93	22	79	60	1
94	23	78	60	1
95	23	5	200	1
96	23	7	140	1
97	23	1	200	1
98	23	9	8	2
99	23	25	3	2
100	23	114	4	2
101	23	8	6	2
102	23	74	40	1
103	23	79	100	1
104	24	78	60	1
105	24	5	200	1
106	24	7	140	1
107	24	1	200	1
108	24	9	13	2
109	24	25	7	2
110	24	114	4	2
111	24	8	6	2
112	24	74	40	1
113	24	79	100	1
114	24	80	30	1
115	25	78	10	1
116	25	5	60	1
117	25	7	80	1
118	25	1	40	1
119	25	79	20	1
120	25	74	10	1
121	26	78	30	1
122	26	5	100	1
123	26	7	160	1
124	26	1	80	1
125	26	79	20	1
126	26	74	20	1
127	27	78	60	1
128	27	5	160	1
129	27	7	260	1
130	27	1	120	1
131	27	79	20	1
132	27	74	40	1
133	28	78	60	1
134	28	5	160	1
135	28	7	260	1
136	28	1	120	1
137	28	9	6	2
138	28	25	1	2
139	28	114	1	2
140	28	8	3	2
141	28	74	40	1
142	28	79	60	1
143	29	78	60	1
144	29	5	160	1
145	29	7	260	1
146	29	1	120	1
147	29	9	8	2
148	29	25	3	2
149	29	114	4	2
150	29	8	6	2
151	29	74	40	1
152	29	79	100	1
153	30	78	60	1
154	30	5	160	1
155	30	7	260	1
156	30	1	120	1
157	30	9	13	2
158	30	25	7	2
159	30	114	4	2
160	30	8	6	2
161	30	74	40	1
162	30	79	100	1
163	30	80	30	1
164	31	25	1	2
165	32	25	2	2
166	33	5	25	1
167	33	7	70	1
168	34	5	7	1
169	34	7	35	1
170	35	5	13	1
171	35	7	45	1
172	36	7	47	1
173	37	80	5	1
174	38	80	15	1
